(set-logic QF_SLIA)
(declare-fun var0 () String)
(assert (not (str.in_re var0 (re.++ ((_ re.loop 1 895) (re.++ (re.union (str.to_re "jl#") (re.union (str.to_re "8QC") (re.union (str.to_re "l") (str.to_re "!`]")))) (re.++ (re.union (str.to_re "]") (re.union (str.to_re "9c") (re.union (str.to_re "/s") (str.to_re "%")))) (re.++ (re.union (str.to_re "/") (re.union (str.to_re ";YF") (re.union (str.to_re "NA") (str.to_re "*K;")))) (re.union (str.to_re "Ve") (re.union (str.to_re "V(") (re.union (str.to_re "xsx") (str.to_re "4>=")))))))) (re.++ ((_ re.loop 10 207) (re.++ (re.union (str.to_re "<>") (re.union (str.to_re ">Rw") (re.union (str.to_re "Fy") (str.to_re "9")))) (re.++ (re.union (str.to_re ",j") (re.union (str.to_re "Fhe") (re.union (str.to_re "J") (str.to_re "l)C")))) (re.++ (re.union (str.to_re "+rB") (re.union (str.to_re "OJu") (re.union (str.to_re "Z") (str.to_re "N'i")))) (re.union (str.to_re "\u0022") (re.union (str.to_re "Z") (re.union (str.to_re "%o;") (str.to_re "3b8")))))))) (re.++ ((_ re.loop 7 622) (re.++ (re.union (str.to_re "73") (re.union (str.to_re ">|L") (re.union (str.to_re "Y") (str.to_re "Es,")))) (re.++ (re.union (str.to_re "3u|") (re.union (str.to_re "|") (re.union (str.to_re "d") (str.to_re "/")))) (re.++ (re.union (str.to_re "`") (re.union (str.to_re "an") (re.union (str.to_re "3N") (str.to_re "}}P")))) (re.union (str.to_re "f+D") (re.union (str.to_re "G") (re.union (str.to_re "o]w") (str.to_re "cW")))))))) ((_ re.loop 16 800) (re.++ (re.union (str.to_re "HD") (re.union (str.to_re "*") (re.union (str.to_re "s") (str.to_re "4Y")))) (re.++ (re.union (str.to_re "^]M") (re.union (str.to_re ")zy") (re.union (str.to_re "&u") (str.to_re "m\u0022.")))) (re.++ (re.union (str.to_re "R") (re.union (str.to_re "WKl") (re.union (str.to_re "\u0022q<") (str.to_re "Yd")))) (re.union (str.to_re "Hk") (re.union (str.to_re "-") (re.union (str.to_re "9") (str.to_re "qz="))))))))))))))
(assert (not (str.in_re var0 (re.++ ((_ re.loop 8 802) (re.++ (re.union (str.to_re "1") (re.union (str.to_re "K") (re.union (str.to_re "U") (str.to_re "GB")))) (re.++ (re.union (str.to_re "-Ip") (re.union (str.to_re "3") (re.union (str.to_re "bH~") (str.to_re "U-")))) (re.++ (re.union (str.to_re "Fm7") (re.union (str.to_re "z~") (re.union (str.to_re "jg") (str.to_re "7;")))) (re.union (str.to_re "JG&") (re.union (str.to_re "Sl") (re.union (str.to_re "j") (str.to_re "EU")))))))) (re.++ ((_ re.loop 10 237) (re.++ (re.union (str.to_re "lj") (re.union (str.to_re "Bq") (re.union (str.to_re "]") (str.to_re "]^")))) (re.++ (re.union (str.to_re "$r") (re.union (str.to_re "w") (re.union (str.to_re "cC") (str.to_re "b")))) (re.++ (re.union (str.to_re "Q") (re.union (str.to_re "y_B") (re.union (str.to_re "x") (str.to_re "ta")))) (re.union (str.to_re "M\\") (re.union (str.to_re "bN") (re.union (str.to_re "nX") (str.to_re "R")))))))) (re.++ ((_ re.loop 2 425) (re.++ (re.union (str.to_re "U[") (re.union (str.to_re "@gw") (re.union (str.to_re "g") (str.to_re "C")))) (re.++ (re.union (str.to_re "-{O") (re.union (str.to_re "5]") (re.union (str.to_re "#f,") (str.to_re "So")))) (re.++ (re.union (str.to_re "0\u0022a") (re.union (str.to_re "f]") (re.union (str.to_re "/{") (str.to_re "bH@")))) (re.union (str.to_re "#") (re.union (str.to_re "hpR") (re.union (str.to_re "%") (str.to_re "c!")))))))) ((_ re.loop 18 425) (re.++ (re.union (str.to_re "[") (re.union (str.to_re "~$u") (re.union (str.to_re "PC") (str.to_re "_")))) (re.++ (re.union (str.to_re "\u0022\\") (re.union (str.to_re "K") (re.union (str.to_re "~t?") (str.to_re "P")))) (re.++ (re.union (str.to_re "}IM") (re.union (str.to_re "Reh") (re.union (str.to_re "p") (str.to_re "H{")))) (re.union (str.to_re "b\u0022,") (re.union (str.to_re "SI") (re.union (str.to_re "y*[") (str.to_re "jd"))))))))))))))
(assert (not (str.in_re var0 (re.++ (re.* re.allchar) (re.++ (re.union (str.to_re "<") (re.union (str.to_re ">") (re.union (str.to_re "'") (re.union (str.to_re "\u0022") (str.to_re "&"))))) (re.* re.allchar))))))
(assert (<= 50 (str.len var0)))
(check-sat)
(get-model)
